CPXPARAM_MIP_Tolerances_MIPGap                   0
Lazy constraint(s) or lazy constraint callback is present.
    Disabling dual reductions (CPX_PARAM_REDUCE) in presolve.
    Disabling non-linear reductions (CPX_PARAM_PRELINEAR) in presolve.
         Disabling repeat represolve because of lazy constraint/incumbent callback.
Tried aggregator 1 time.
MIP Presolve eliminated 3207 rows and 20 columns.
MIP Presolve modified 18 coefficients.
Reduced MIP has 482 rows, 3283 columns, and 1052 nonzeros.
Reduced MIP has 2917 binaries, 0 generals, 0 SOSs, and 0 indicators.
Presolve time = 0.00 sec. (2.02 ticks)
Probing time = 0.02 sec. (0.52 ticks)
Clique table members: 211.
MIP emphasis: balance optimality and feasibility.
MIP search method: traditional branch-and-cut.
Parallel mode: none, using 1 thread.
Root relaxation solution time = 0.00 sec. (1.55 ticks)

        Nodes                                         Cuts/
   Node  Left     Objective  IInf  Best Integer    Best Bound    ItCnt     Gap         Variable B NodeID Parent  Depth

      0     0       20.0000    44                     20.0000       44         
      0     0       37.0000     7                   Cuts: 184      366         
      0     0       37.0001    13                    Cuts: 25      414         
      0     0       37.0001     6                  MIRcuts: 3      428         
      0     0       37.0001     8                   Covers: 1      443         
*     0+    0                           72.0000       37.0001            48.61%
      0     2       37.0001    12       72.0000       37.0008      443   48.61%                        0             0
Elapsed time = 0.22 sec. (62.64 ticks, tree = 0.01 MB, solutions = 1)
*    20    12      integral     0       42.0000       38.0000      512    9.52%
*    37     6      integral     0       39.0000       38.0000      608    2.56%

Clique cuts applied:  110
Cover cuts applied:  3
Implied bound cuts applied:  1
Mixed integer rounding cuts applied:  42
User cuts applied:  436

Root node processing (before b&c):
  Real time             =    0.22 sec. (62.73 ticks)
Sequential b&c:
  Real time             =    0.20 sec. (90.44 ticks)
                          ------------
Total (root+branch&cut) =    0.42 sec. (153.17 ticks)
